words_hard_train/7604.qaiger
aag 29 15 0 1 14
2
4
8
12
14
18
20
28
30
36
40
44
46
52
54
59
6 2 4
10 7 9
16 12 14
22 18 20
24 17 23
26 10 24
32 28 30
34 26 33
38 35 36
42 38 40
48 44 46
50 43 49
56 52 54
58 51 57
i0 2 y2[4]
i1 1 x2[4]
i2 1 x2[0]
i3 2 y2[2]
i4 1 x2[2]
i5 2 y2[3]
i6 1 x2[3]
i7 2 y2[1]
i8 1 x2[1]
i9 2 y2[5]
i10 1 x2[5]
i11 2 y2[6]
i12 1 x2[6]
i13 2 y2[7]
i14 1 x2[7]
o0 bv[0]
c
simplified
  >=
    << 5
      1
    and
      1 x2
      or
        2 y2
        1
