words_hard_train/7604.qaiger.qdimacs
p cnf 29 43
a 2 4 7 10 15 20 23 27 0
e 1 3 5 6 8 9 11 12 13 14 16 17 18 19 21 22 24 25 26 28 29 0
-1 -2 3 0
1 -3 0
2 -3 0
3 4 5 0
-3 -5 0
-4 -5 0
-6 -7 8 0
6 -8 0
7 -8 0
-9 -10 11 0
9 -11 0
10 -11 0
8 11 12 0
-8 -12 0
-11 -12 0
-5 -12 13 0
5 -13 0
12 -13 0
-14 -15 16 0
14 -16 0
15 -16 0
-13 16 17 0
13 -17 0
-16 -17 0
17 -18 19 0
-17 -19 0
18 -19 0
-19 -20 21 0
19 -21 0
20 -21 0
-22 -23 24 0
22 -24 0
23 -24 0
21 24 25 0
-21 -25 0
-24 -25 0
-26 -27 28 0
26 -28 0
27 -28 0
25 28 29 0
-25 -29 0
-28 -29 0
-29 0
